c description: Random 3-CNF over 15 variables and 64 clauses
c generator: CNFgen (0.9.2)
c copyright: (C) 2012-2022 Massimo Lauria <massimo.lauria@uniroma1.it>
c url: https://massimolauria.net/cnfgen
c command line: cnfgen --output CNF_4.28/15_bit_64_285.cnf randkcnf 3 15 64
c
p cnf 15 64
4 -6 10 0
-2 3 -11 0
-8 -9 11 0
-4 8 -14 0
-3 5 12 0
-2 -4 -10 0
-3 8 10 0
-5 10 15 0
3 5 -10 0
3 -5 12 0
1 12 13 0
1 11 14 0
2 -4 10 0
1 -5 7 0
5 -9 -13 0
6 9 11 0
2 -5 -15 0
2 -11 13 0
1 -11 13 0
-1 5 12 0
7 13 15 0
-1 -4 10 0
1 -7 -8 0
4 -5 -15 0
-4 12 13 0
-1 -3 -11 0
-2 -3 -7 0
2 -11 -12 0
-3 -4 -7 0
-5 14 15 0
-5 12 15 0
-1 -2 -11 0
-1 4 -10 0
-1 2 -11 0
3 -13 -15 0
3 8 12 0
2 3 -14 0
-6 7 -10 0
2 -5 11 0
6 -7 12 0
5 -7 -9 0
1 8 -10 0
5 8 -13 0
4 6 14 0
-7 -8 -13 0
-6 11 -13 0
2 5 -8 0
2 5 9 0
7 -11 -15 0
2 -6 7 0
7 -12 -13 0
4 -5 7 0
1 3 -6 0
1 11 -14 0
1 2 15 0
9 -11 13 0
2 -8 15 0
-6 7 12 0
-2 -5 11 0
3 -7 10 0
-5 7 -13 0
2 4 -13 0
-1 -2 13 0
-3 -6 11 0
